c NeuroCodeBench 2.0 CNF formula with verdict Unsat
p cnf 13 26
-1 -5 -10 8 -13 -6 -12 -3 0
-1 -5 -10 8 -13 -6 -12 3 0
1 11 -2 -12 -8 10 0
-1 -5 10 -12 -3 2 13 0
1 11 2 -7 0
-1 -5 -10 8 -13 -6 12 0
-1 5 -11 0
-1 -5 10 -12 3 -6 0
-1 -5 10 -12 3 6 0
-1 -5 -10 -8 -7 0
-1 -5 10 -12 -3 -2 -7 0
-1 -5 10 12 0
1 11 2 7 0
1 11 -2 -12 8 0
1 11 -2 -12 -8 -10 0
1 -11 -12 0
1 11 -2 12 8 0
-1 -5 10 -12 -3 2 -13 0
-1 -5 -10 8 13 0
1 -11 12 0
-1 5 11 -12 0
-1 -5 -10 -8 7 0
-1 -5 10 -12 -3 -2 7 0
-1 5 11 12 0
1 11 -2 12 -8 0
-1 -5 -10 8 -13 6 0
